# Solution for model SBL-StripPacking-15
# Objective value = 300
c[0,0] 62
c[0,1] 46.5
c[1,0] 186
c[1,1] 66
c[2,0] 170
c[2,1] 125
c[3,0] 278
c[3,1] 133
c[4,0] 247
c[4,1] 23.5
c[5,0] 57.5
c[5,1] 207.5
c[6,0] 245.5
c[6,1] 208.5
c[7,0] 279.5
c[7,1] 83
c[8,0] 162.5
c[8,1] 73
c[9,0] 196
c[9,1] 86
c[10,0] 143.5
c[10,1] 69
c[11,0] 232.5
c[11,1] 135
c[12,0] 131
c[12,1] 269.5
c[13,0] 130.5
c[13,1] 11
c[14,0] 131.5
c[14,1] 208.5
h 300
delta[0,1] 0
delta[0,2] 0
delta[0,3] 0
delta[0,4] 0
delta[0,5] 1
delta[0,6] 0
delta[0,7] 0
delta[0,8] 0
delta[0,9] 0
delta[0,10] 0
delta[0,11] 0
delta[0,12] 1
delta[0,13] 0
delta[0,14] 1
delta[1,0] 0
delta[1,2] 1
delta[1,3] 0
delta[1,4] 0
delta[1,5] 1
delta[1,6] 1
delta[1,7] 0
delta[1,8] 1
delta[1,9] 1
delta[1,10] 1
delta[1,11] 0
delta[1,12] 1
delta[1,13] 0
delta[1,14] 1
delta[2,0] 0
delta[2,1] 0
delta[2,3] 0
delta[2,4] 0
delta[2,5] 1
delta[2,6] 1
delta[2,7] 0
delta[2,8] 0
delta[2,9] 0
delta[2,10] 0
delta[2,11] 1
delta[2,12] 1
delta[2,13] 0
delta[2,14] 1
delta[3,0] 0
delta[3,1] 0
delta[3,2] 0
delta[3,4] 0
delta[3,5] 1
delta[3,6] 1
delta[3,7] 0
delta[3,8] 1
delta[3,9] 1
delta[3,10] 0
delta[3,11] 0
delta[3,12] 0
delta[3,13] 0
delta[3,14] 0
delta[4,0] 0
delta[4,1] 1
delta[4,2] 1
delta[4,3] 1
delta[4,5] 1
delta[4,6] 1
delta[4,7] 1
delta[4,8] 1
delta[4,9] 1
delta[4,10] 1
delta[4,11] 1
delta[4,12] 1
delta[4,13] 0
delta[4,14] 1
delta[5,0] 0
delta[5,1] 1
delta[5,2] 1
delta[5,3] 1
delta[5,4] 0
delta[5,6] 0
delta[5,7] 0
delta[5,8] 0
delta[5,9] 0
delta[5,10] 1
delta[5,11] 1
delta[5,12] 1
delta[5,13] 1
delta[5,14] 1
delta[6,0] 0
delta[6,1] 0
delta[6,2] 0
delta[6,3] 0
delta[6,4] 0
delta[6,5] 0
delta[6,7] 0
delta[6,8] 0
delta[6,9] 0
delta[6,10] 0
delta[6,11] 0
delta[6,12] 0
delta[6,13] 0
delta[6,14] 0
delta[7,0] 0
delta[7,1] 0
delta[7,2] 0
delta[7,3] 1
delta[7,4] 0
delta[7,5] 0
delta[7,6] 1
delta[7,8] 1
delta[7,9] 1
delta[7,10] 0
delta[7,11] 1
delta[7,12] 1
delta[7,13] 0
delta[7,14] 1
delta[8,0] 0
delta[8,1] 1
delta[8,2] 1
delta[8,3] 1
delta[8,4] 0
delta[8,5] 1
delta[8,6] 1
delta[8,7] 1
delta[8,9] 0
delta[8,10] 0
delta[8,11] 1
delta[8,12] 1
delta[8,13] 0
delta[8,14] 1
delta[9,0] 0
delta[9,1] 0
delta[9,2] 1
delta[9,3] 1
delta[9,4] 0
delta[9,5] 1
delta[9,6] 1
delta[9,7] 1
delta[9,8] 0
delta[9,10] 0
delta[9,11] 1
delta[9,12] 1
delta[9,13] 0
delta[9,14] 1
delta[10,0] 0
delta[10,1] 1
delta[10,2] 1
delta[10,3] 0
delta[10,4] 0
delta[10,5] 1
delta[10,6] 1
delta[10,7] 0
delta[10,8] 0
delta[10,9] 0
delta[10,11] 1
delta[10,12] 1
delta[10,13] 0
delta[10,14] 1
delta[11,0] 0
delta[11,1] 0
delta[11,2] 1
delta[11,3] 0
delta[11,4] 0
delta[11,5] 1
delta[11,6] 1
delta[11,7] 0
delta[11,8] 0
delta[11,9] 0
delta[11,10] 0
delta[11,12] 1
delta[11,13] 0
delta[11,14] 1
delta[12,0] 0
delta[12,1] 1
delta[12,2] 0
delta[12,3] 0
delta[12,4] 0
delta[12,5] 1
delta[12,6] 0
delta[12,7] 0
delta[12,8] 0
delta[12,9] 0
delta[12,10] 0
delta[12,11] 0
delta[12,13] 0
delta[12,14] 0
delta[13,0] 0
delta[13,1] 1
delta[13,2] 1
delta[13,3] 0
delta[13,4] 0
delta[13,5] 1
delta[13,6] 1
delta[13,7] 1
delta[13,8] 1
delta[13,9] 1
delta[13,10] 1
delta[13,11] 1
delta[13,12] 1
delta[13,14] 1
delta[14,0] 0
delta[14,1] 0
delta[14,2] 0
delta[14,3] 0
delta[14,4] 0
delta[14,5] 1
delta[14,6] 0
delta[14,7] 0
delta[14,8] 0
delta[14,9] 0
delta[14,10] 0
delta[14,11] 1
delta[14,12] 1
delta[14,13] 0
